experiments/solvers_scalability/solutions/scalability/imx8a/IN_5_6.json-QP-LR-UB.out.log
Tasks lengths
[41, 48, 52, 63, 97, 105, 115, 122, 281, 353]
3
Using license file /home/benedond/gurobi.lic
Using gurobi.env file
Set parameter Threads to value 1
Academic license - for non-commercial use only
Changed value of parameter TimeLimit to 300.0
   Prev: inf  Min: 0.0  Max: inf  Default: inf
Gurobi Optimizer version 9.0.1 build v9.0.1rc0 (linux64)
Optimize a model with 44 rows, 33 columns and 127 nonzeros
Model fingerprint: 0xc41c0b00
Model has 30 quadratic objective terms
Variable types: 3 continuous, 30 integer (30 binary)
Coefficient statistics:
  Matrix range     [1e+00, 4e+02]
  Objective range  [0e+00, 0e+00]
  QObjective range [4e-03, 2e-02]
  Bounds range     [1e+00, 1e+00]
  RHS range        [1e+00, 2e+02]
Presolve removed 41 rows and 29 columns
Presolve time: 0.00s
Presolved: 6 rows, 7 columns, 17 nonzeros
Variable types: 4 continuous, 3 integer (3 binary)

Root relaxation: objective 2.786385e+00, 4 iterations, 0.00 seconds

    Nodes    |    Current Node    |     Objective Bounds      |     Work
 Expl Unexpl |  Obj  Depth IntInf | Incumbent    BestBd   Gap | It/Node Time

     0     0    2.78638    0    3          -    2.78638      -     -    0s
H    0     0                       3.6381959    2.78638  23.4%     -    0s
H    0     0                       3.2248769    2.78638  13.6%     -    0s
     0     0     cutoff    0         3.22488    3.22488  0.00%     -    0s

Cutting planes:
  Implied bound: 1
  MIR: 3

Explored 1 nodes (10 simplex iterations) in 0.00 seconds
Thread count was 1 (of 4 available processors)

Solution count 2: 3.22488 3.6382 

Optimal solution found (tolerance 1.00e-04)
Best objective 3.224876917352e+00, best bound 3.224876917352e+00, gap 0.0000%
